/* Objective function */
min: +C197;

/* Constraints */
+38 C1 +130 C2 +92 C3 +21 C4 +81 C5 +137 C6 +11 C7 +98 C8 +28 C9 +23 C10 +49 C11 +58 C12 +66 C13 +69 C14
 +38 C15 +130 C16 +92 C17 +21 C18 +81 C19 +137 C20 +11 C21 +98 C22 +28 C23 +23 C24 +49 C25 +58 C26 +66 C27
 +69 C28 +38 C29 +130 C30 +92 C31 +21 C32 +81 C33 +137 C34 +11 C35 +98 C36 +28 C37 +23 C38 +49 C39 +58 C40
 +66 C41 +69 C42 +38 C43 +130 C44 +92 C45 +21 C46 +81 C47 +137 C48 +11 C49 +98 C50 +28 C51 +23 C52 +49 C53
 +58 C54 +66 C55 +69 C56 +38 C57 +130 C58 +92 C59 +21 C60 +81 C61 +137 C62 +11 C63 +98 C64 +28 C65 +23 C66
 +49 C67 +58 C68 +66 C69 +69 C70 +38 C71 +130 C72 +92 C73 +21 C74 +81 C75 +137 C76 +11 C77 +98 C78 +28 C79
 +23 C80 +49 C81 +58 C82 +66 C83 +69 C84 +38 C85 +130 C86 +92 C87 +21 C88 +81 C89 +137 C90 +11 C91 +98 C92
 +28 C93 +23 C94 +49 C95 +58 C96 +66 C97 +69 C98 +38 C99 +130 C100 +92 C101 +21 C102 +81 C103 +137 C104
 +11 C105 +98 C106 +28 C107 +23 C108 +49 C109 +58 C110 +66 C111 +69 C112 +38 C113 +130 C114 +92 C115
 +21 C116 +81 C117 +137 C118 +11 C119 +98 C120 +28 C121 +23 C122 +49 C123 +58 C124 +66 C125 +69 C126
 +38 C127 +130 C128 +92 C129 +21 C130 +81 C131 +137 C132 +11 C133 +98 C134 +28 C135 +23 C136 +49 C137
 +58 C138 +66 C139 +69 C140 +38 C141 +130 C142 +92 C143 +21 C144 +81 C145 +137 C146 +11 C147 +98 C148
 +28 C149 +23 C150 +49 C151 +58 C152 +66 C153 +69 C154 +38 C155 +130 C156 +92 C157 +21 C158 +81 C159
 +137 C160 +11 C161 +98 C162 +28 C163 +23 C164 +49 C165 +58 C166 +66 C167 +69 C168 +38 C169 +130 C170
 +92 C171 +21 C172 +81 C173 +137 C174 +11 C175 +98 C176 +28 C177 +23 C178 +49 C179 +58 C180 +66 C181
 +69 C182 +38 C183 +130 C184 +92 C185 +21 C186 +81 C187 +137 C188 +11 C189 +98 C190 +28 C191 +23 C192
 +49 C193 +58 C194 +66 C195 +69 C196 -174 C197 <= 0;
+3 C1 +C2 +3 C3 +3 C4 +3 C5 +2 C6 +3 C7 +3 C8 +3 C9 +C10 +2 C11 +2 C12 +C13 +3 C14 +3 C15 +C16 +3 C17
 +3 C18 +3 C19 +2 C20 +3 C21 +3 C22 +3 C23 +C24 +2 C25 +2 C26 +C27 +3 C28 +3 C29 +C30 +3 C31 +3 C32 +3 C33
 +2 C34 +3 C35 +3 C36 +3 C37 +C38 +2 C39 +2 C40 +C41 +3 C42 +3 C43 +C44 +3 C45 +3 C46 +3 C47 +2 C48 +3 C49
 +3 C50 +3 C51 +C52 +2 C53 +2 C54 +C55 +3 C56 +3 C57 +C58 +3 C59 +3 C60 +3 C61 +2 C62 +3 C63 +3 C64 +3 C65
 +C66 +2 C67 +2 C68 +C69 +3 C70 +3 C71 +C72 +3 C73 +3 C74 +3 C75 +2 C76 +3 C77 +3 C78 +3 C79 +C80 +2 C81
 +2 C82 +C83 +3 C84 +3 C85 +C86 +3 C87 +3 C88 +3 C89 +2 C90 +3 C91 +3 C92 +3 C93 +C94 +2 C95 +2 C96 +C97
 +3 C98 +3 C99 +C100 +3 C101 +3 C102 +3 C103 +2 C104 +3 C105 +3 C106 +3 C107 +C108 +2 C109 +2 C110 +C111
 +3 C112 +3 C113 +C114 +3 C115 +3 C116 +3 C117 +2 C118 +3 C119 +3 C120 +3 C121 +C122 +2 C123 +2 C124
 +C125 +3 C126 +3 C127 +C128 +3 C129 +3 C130 +3 C131 +2 C132 +3 C133 +3 C134 +3 C135 +C136 +2 C137 +2 C138
 +C139 +3 C140 +3 C141 +C142 +3 C143 +3 C144 +3 C145 +2 C146 +3 C147 +3 C148 +3 C149 +C150 +2 C151 +2 C152
 +C153 +3 C154 +3 C155 +C156 +3 C157 +3 C158 +3 C159 +2 C160 +3 C161 +3 C162 +3 C163 +C164 +2 C165 +2 C166
 +C167 +3 C168 +3 C169 +C170 +3 C171 +3 C172 +3 C173 +2 C174 +3 C175 +3 C176 +3 C177 +C178 +2 C179 +2 C180
 +C181 +3 C182 +3 C183 +C184 +3 C185 +3 C186 +3 C187 +2 C188 +3 C189 +3 C190 +3 C191 +C192 +2 C193 +2 C194
 +C195 +3 C196 -3 C197 <= 0;
+C1 +C15 +C29 +C43 +C57 +C71 +C85 +C99 +C113 +C127 +C141 +C155 +C169 +C183 = 1;
+C2 +C16 +C30 +C44 +C58 +C72 +C86 +C100 +C114 +C128 +C142 +C156 +C170 +C184 = 1;
+C3 +C17 +C31 +C45 +C59 +C73 +C87 +C101 +C115 +C129 +C143 +C157 +C171 +C185 = 1;
+C4 +C18 +C32 +C46 +C60 +C74 +C88 +C102 +C116 +C130 +C144 +C158 +C172 +C186 = 1;
+C5 +C19 +C33 +C47 +C61 +C75 +C89 +C103 +C117 +C131 +C145 +C159 +C173 +C187 = 1;
+C6 +C20 +C34 +C48 +C62 +C76 +C90 +C104 +C118 +C132 +C146 +C160 +C174 +C188 = 1;
+C7 +C21 +C35 +C49 +C63 +C77 +C91 +C105 +C119 +C133 +C147 +C161 +C175 +C189 = 1;
+C8 +C22 +C36 +C50 +C64 +C78 +C92 +C106 +C120 +C134 +C148 +C162 +C176 +C190 = 1;
+C9 +C23 +C37 +C51 +C65 +C79 +C93 +C107 +C121 +C135 +C149 +C163 +C177 +C191 = 1;
+C10 +C24 +C38 +C52 +C66 +C80 +C94 +C108 +C122 +C136 +C150 +C164 +C178 +C192 = 1;
+C11 +C25 +C39 +C53 +C67 +C81 +C95 +C109 +C123 +C137 +C151 +C165 +C179 +C193 = 1;
+C12 +C26 +C40 +C54 +C68 +C82 +C96 +C110 +C124 +C138 +C152 +C166 +C180 +C194 = 1;
+C13 +C27 +C41 +C55 +C69 +C83 +C97 +C111 +C125 +C139 +C153 +C167 +C181 +C195 = 1;
+C14 +C28 +C42 +C56 +C70 +C84 +C98 +C112 +C126 +C140 +C154 +C168 +C182 +C196 = 1;

/* Variable bounds */
C1 <= 1;
C2 <= 1;
C3 <= 1;
C4 <= 1;
C5 <= 1;
C6 <= 1;
C7 <= 1;
C8 <= 1;
C9 <= 1;
C10 <= 1;
C11 <= 1;
C12 <= 1;
C13 <= 1;
C14 <= 1;
C15 <= 1;
C16 <= 1;
C17 <= 1;
C18 <= 1;
C19 <= 1;
C20 <= 1;
C21 <= 1;
C22 <= 1;
C23 <= 1;
C24 <= 1;
C25 <= 1;
C26 <= 1;
C27 <= 1;
C28 <= 1;
C29 <= 1;
C30 <= 1;
C31 <= 1;
C32 <= 1;
C33 <= 1;
C34 <= 1;
C35 <= 1;
C36 <= 1;
C37 <= 1;
C38 <= 1;
C39 <= 1;
C40 <= 1;
C41 <= 1;
C42 <= 1;
C43 <= 1;
C44 <= 1;
C45 <= 1;
C46 <= 1;
C47 <= 1;
C48 <= 1;
C49 <= 1;
C50 <= 1;
C51 <= 1;
C52 <= 1;
C53 <= 1;
C54 <= 1;
C55 <= 1;
C56 <= 1;
C57 <= 1;
C58 <= 1;
C59 <= 1;
C60 <= 1;
C61 <= 1;
C62 <= 1;
C63 <= 1;
C64 <= 1;
C65 <= 1;
C66 <= 1;
C67 <= 1;
C68 <= 1;
C69 <= 1;
C70 <= 1;
C71 <= 1;
C72 <= 1;
C73 <= 1;
C74 <= 1;
C75 <= 1;
C76 <= 1;
C77 <= 1;
C78 <= 1;
C79 <= 1;
C80 <= 1;
C81 <= 1;
C82 <= 1;
C83 <= 1;
C84 <= 1;
C85 <= 1;
C86 <= 1;
C87 <= 1;
C88 <= 1;
C89 <= 1;
C90 <= 1;
C91 <= 1;
C92 <= 1;
C93 <= 1;
C94 <= 1;
C95 <= 1;
C96 <= 1;
C97 <= 1;
C98 <= 1;
C99 <= 1;
C100 <= 1;
C101 <= 1;
C102 <= 1;
C103 <= 1;
C104 <= 1;
C105 <= 1;
C106 <= 1;
C107 <= 1;
C108 <= 1;
C109 <= 1;
C110 <= 1;
C111 <= 1;
C112 <= 1;
C113 <= 1;
C114 <= 1;
C115 <= 1;
C116 <= 1;
C117 <= 1;
C118 <= 1;
C119 <= 1;
C120 <= 1;
C121 <= 1;
C122 <= 1;
C123 <= 1;
C124 <= 1;
C125 <= 1;
C126 <= 1;
C127 <= 1;
C128 <= 1;
C129 <= 1;
C130 <= 1;
C131 <= 1;
C132 <= 1;
C133 <= 1;
C134 <= 1;
C135 <= 1;
C136 <= 1;
C137 <= 1;
C138 <= 1;
C139 <= 1;
C140 <= 1;
C141 <= 1;
C142 <= 1;
C143 <= 1;
C144 <= 1;
C145 <= 1;
C146 <= 1;
C147 <= 1;
C148 <= 1;
C149 <= 1;
C150 <= 1;
C151 <= 1;
C152 <= 1;
C153 <= 1;
C154 <= 1;
C155 <= 1;
C156 <= 1;
C157 <= 1;
C158 <= 1;
C159 <= 1;
C160 <= 1;
C161 <= 1;
C162 <= 1;
C163 <= 1;
C164 <= 1;
C165 <= 1;
C166 <= 1;
C167 <= 1;
C168 <= 1;
C169 <= 1;
C170 <= 1;
C171 <= 1;
C172 <= 1;
C173 <= 1;
C174 <= 1;
C175 <= 1;
C176 <= 1;
C177 <= 1;
C178 <= 1;
C179 <= 1;
C180 <= 1;
C181 <= 1;
C182 <= 1;
C183 <= 1;
C184 <= 1;
C185 <= 1;
C186 <= 1;
C187 <= 1;
C188 <= 1;
C189 <= 1;
C190 <= 1;
C191 <= 1;
C192 <= 1;
C193 <= 1;
C194 <= 1;
C195 <= 1;

/* Integer definitions */
int C1,C2,C3,C4,C5,C6,C7,C8,C9,C10,C11,C12,C13,C14,C15,C16,C17,C18,C19,C20,C21,C22,C23,C24,C25,C26,C27,C28,C29,C30,C31,C32,C33,C34,C35,C36,C37,C38,C39,C40,C41,C42,C43,C44,C45,C46,C47,C48,C49,C50,C51,C52,C53,C54,C55,C56,C57,C58,C59,C60,C61,C62,C63,C64,C65,C66,C67,C68,C69,C70,C71,C72,C73,C74,C75,C76,C77,C78,C79,C80,C81,C82,C83,C84,C85,C86,C87,C88,C89,C90,C91,C92,C93,C94,C95,C96,C97,C98,C99,C100,C101,C102,C103,C104,C105,C106,C107,C108,C109,C110,C111,C112,C113,C114,C115,C116,C117,C118,C119,C120,C121,C122,C123,C124,C125,C126,C127,C128,C129,C130,C131,C132,C133,C134,C135,C136,C137,C138,C139,C140,C141,C142,C143,C144,C145,C146,C147,C148,C149,C150,C151,C152,C153,C154,C155,C156,C157,C158,C159,C160,C161,C162,C163,C164,C165,C166,C167,C168,C169,C170,C171,C172,C173,C174,C175,C176,C177,C178,C179,C180,C181,C182,C183,C184,C185,C186,C187,C188,C189,C190,C191,C192,C193,C194,C195,C197;
